p cnf 40 607
1 2 3 4 5 0
-1 -2 0
-1 -3 0
-1 -4 0
-1 -5 0
-2 -3 0
-2 -4 0
-2 -5 0
-3 -4 0
-3 -5 0
-4 -5 0
11 12 13 14 15 0
-11 -12 0
-11 -13 0
-11 -14 0
-11 -15 0
-12 -13 0
-12 -14 0
-12 -15 0
-13 -14 0
-13 -15 0
-14 -15 0
25 26 27 28 29 0
-25 -26 0
-25 -27 0
-25 -28 0
-25 -29 0
-26 -27 0
-26 -28 0
-26 -29 0
-27 -28 0
-27 -29 0
-28 -29 0
6 7 8 9 10 0
-6 -7 0
-6 -8 0
-6 -9 0
-6 -10 0
-7 -8 0
-7 -9 0
-7 -10 0
-8 -9 0
-8 -10 0
-9 -10 0
16 17 18 19 20 21 22 23 24 0
-16 -17 0
-16 -18 0
-16 -19 0
-16 -20 0
-16 -21 0
-16 -22 0
-16 -23 0
-16 -24 0
-17 -18 0
-17 -19 0
-17 -20 0
-17 -21 0
-17 -22 0
-17 -23 0
-17 -24 0
-18 -19 0
-18 -20 0
-18 -21 0
-18 -22 0
-18 -23 0
-18 -24 0
-19 -20 0
-19 -21 0
-19 -22 0
-19 -23 0
-19 -24 0
-20 -21 0
-20 -22 0
-20 -23 0
-20 -24 0
-21 -22 0
-21 -23 0
-21 -24 0
-22 -23 0
-22 -24 0
-23 -24 0
30 31 32 33 34 35 36 37 38 39 40 0
-30 -31 0
-30 -32 0
-30 -33 0
-30 -34 0
-30 -35 0
-30 -36 0
-30 -37 0
-30 -38 0
-30 -39 0
-30 -40 0
-31 -32 0
-31 -33 0
-31 -34 0
-31 -35 0
-31 -36 0
-31 -37 0
-31 -38 0
-31 -39 0
-31 -40 0
-32 -33 0
-32 -34 0
-32 -35 0
-32 -36 0
-32 -37 0
-32 -38 0
-32 -39 0
-32 -40 0
-33 -34 0
-33 -35 0
-33 -36 0
-33 -37 0
-33 -38 0
-33 -39 0
-33 -40 0
-34 -35 0
-34 -36 0
-34 -37 0
-34 -38 0
-34 -39 0
-34 -40 0
-35 -36 0
-35 -37 0
-35 -38 0
-35 -39 0
-35 -40 0
-36 -37 0
-36 -38 0
-36 -39 0
-36 -40 0
-37 -38 0
-37 -39 0
-37 -40 0
-38 -39 0
-38 -40 0
-39 -40 0
-1 -11 -7 -16 0
-2 -12 -7 -16 0
-3 -13 -7 -16 0
-4 -14 -7 -16 0
-5 -15 -7 -16 0
-1 -11 -8 -16 0
-2 -12 -8 -16 0
-3 -13 -8 -16 0
-4 -14 -8 -16 0
-5 -15 -8 -16 0
-1 -11 -8 -17 0
-2 -12 -8 -17 0
-3 -13 -8 -17 0
-4 -14 -8 -17 0
-5 -15 -8 -17 0
-1 -11 -9 -16 0
-2 -12 -9 -16 0
-3 -13 -9 -16 0
-4 -14 -9 -16 0
-5 -15 -9 -16 0
-1 -11 -9 -17 0
-2 -12 -9 -17 0
-3 -13 -9 -17 0
-4 -14 -9 -17 0
-5 -15 -9 -17 0
-1 -11 -9 -18 0
-2 -12 -9 -18 0
-3 -13 -9 -18 0
-4 -14 -9 -18 0
-5 -15 -9 -18 0
-1 -11 -10 -16 0
-2 -12 -10 -16 0
-3 -13 -10 -16 0
-4 -14 -10 -16 0
-5 -15 -10 -16 0
-1 -11 -10 -17 0
-2 -12 -10 -17 0
-3 -13 -10 -17 0
-4 -14 -10 -17 0
-5 -15 -10 -17 0
-1 -11 -10 -18 0
-2 -12 -10 -18 0
-3 -13 -10 -18 0
-4 -14 -10 -18 0
-5 -15 -10 -18 0
-1 -11 -10 -19 0
-2 -12 -10 -19 0
-3 -13 -10 -19 0
-4 -14 -10 -19 0
-5 -15 -10 -19 0
-1 -25 -8 -30 0
-2 -26 -8 -30 0
-3 -27 -8 -30 0
-4 -28 -8 -30 0
-5 -29 -8 -30 0
-1 -25 -9 -30 0
-2 -26 -9 -30 0
-3 -27 -9 -30 0
-4 -28 -9 -30 0
-5 -29 -9 -30 0
-1 -25 -9 -31 0
-2 -26 -9 -31 0
-3 -27 -9 -31 0
-4 -28 -9 -31 0
-5 -29 -9 -31 0
-1 -25 -10 -30 0
-2 -26 -10 -30 0
-3 -27 -10 -30 0
-4 -28 -10 -30 0
-5 -29 -10 -30 0
-1 -25 -10 -31 0
-2 -26 -10 -31 0
-3 -27 -10 -31 0
-4 -28 -10 -31 0
-5 -29 -10 -31 0
-1 -25 -10 -32 0
-2 -26 -10 -32 0
-3 -27 -10 -32 0
-4 -28 -10 -32 0
-5 -29 -10 -32 0
-11 -25 -16 -30 0
-12 -26 -16 -30 0
-13 -27 -16 -30 0
-14 -28 -16 -30 0
-15 -29 -16 -30 0
-11 -25 -16 -31 0
-12 -26 -16 -31 0
-13 -27 -16 -31 0
-14 -28 -16 -31 0
-15 -29 -16 -31 0
-11 -25 -16 -32 0
-12 -26 -16 -32 0
-13 -27 -16 -32 0
-14 -28 -16 -32 0
-15 -29 -16 -32 0
-11 -25 -16 -33 0
-12 -26 -16 -33 0
-13 -27 -16 -33 0
-14 -28 -16 -33 0
-15 -29 -16 -33 0
-11 -25 -16 -34 0
-12 -26 -16 -34 0
-13 -27 -16 -34 0
-14 -28 -16 -34 0
-15 -29 -16 -34 0
-11 -25 -17 -30 0
-12 -26 -17 -30 0
-13 -27 -17 -30 0
-14 -28 -17 -30 0
-15 -29 -17 -30 0
-11 -25 -17 -31 0
-12 -26 -17 -31 0
-13 -27 -17 -31 0
-14 -28 -17 -31 0
-15 -29 -17 -31 0
-11 -25 -17 -32 0
-12 -26 -17 -32 0
-13 -27 -17 -32 0
-14 -28 -17 -32 0
-15 -29 -17 -32 0
-11 -25 -17 -33 0
-12 -26 -17 -33 0
-13 -27 -17 -33 0
-14 -28 -17 -33 0
-15 -29 -17 -33 0
-11 -25 -17 -34 0
-12 -26 -17 -34 0
-13 -27 -17 -34 0
-14 -28 -17 -34 0
-15 -29 -17 -34 0
-11 -25 -17 -35 0
-12 -26 -17 -35 0
-13 -27 -17 -35 0
-14 -28 -17 -35 0
-15 -29 -17 -35 0
-11 -25 -18 -30 0
-12 -26 -18 -30 0
-13 -27 -18 -30 0
-14 -28 -18 -30 0
-15 -29 -18 -30 0
-11 -25 -18 -31 0
-12 -26 -18 -31 0
-13 -27 -18 -31 0
-14 -28 -18 -31 0
-15 -29 -18 -31 0
-11 -25 -18 -32 0
-12 -26 -18 -32 0
-13 -27 -18 -32 0
-14 -28 -18 -32 0
-15 -29 -18 -32 0
-11 -25 -18 -33 0
-12 -26 -18 -33 0
-13 -27 -18 -33 0
-14 -28 -18 -33 0
-15 -29 -18 -33 0
-11 -25 -18 -34 0
-12 -26 -18 -34 0
-13 -27 -18 -34 0
-14 -28 -18 -34 0
-15 -29 -18 -34 0
-11 -25 -18 -35 0
-12 -26 -18 -35 0
-13 -27 -18 -35 0
-14 -28 -18 -35 0
-15 -29 -18 -35 0
-11 -25 -18 -36 0
-12 -26 -18 -36 0
-13 -27 -18 -36 0
-14 -28 -18 -36 0
-15 -29 -18 -36 0
-11 -25 -19 -30 0
-12 -26 -19 -30 0
-13 -27 -19 -30 0
-14 -28 -19 -30 0
-15 -29 -19 -30 0
-11 -25 -19 -31 0
-12 -26 -19 -31 0
-13 -27 -19 -31 0
-14 -28 -19 -31 0
-15 -29 -19 -31 0
-11 -25 -19 -32 0
-12 -26 -19 -32 0
-13 -27 -19 -32 0
-14 -28 -19 -32 0
-15 -29 -19 -32 0
-11 -25 -19 -33 0
-12 -26 -19 -33 0
-13 -27 -19 -33 0
-14 -28 -19 -33 0
-15 -29 -19 -33 0
-11 -25 -19 -34 0
-12 -26 -19 -34 0
-13 -27 -19 -34 0
-14 -28 -19 -34 0
-15 -29 -19 -34 0
-11 -25 -19 -35 0
-12 -26 -19 -35 0
-13 -27 -19 -35 0
-14 -28 -19 -35 0
-15 -29 -19 -35 0
-11 -25 -19 -36 0
-12 -26 -19 -36 0
-13 -27 -19 -36 0
-14 -28 -19 -36 0
-15 -29 -19 -36 0
-11 -25 -19 -37 0
-12 -26 -19 -37 0
-13 -27 -19 -37 0
-14 -28 -19 -37 0
-15 -29 -19 -37 0
-11 -25 -20 -30 0
-12 -26 -20 -30 0
-13 -27 -20 -30 0
-14 -28 -20 -30 0
-15 -29 -20 -30 0
-11 -25 -20 -31 0
-12 -26 -20 -31 0
-13 -27 -20 -31 0
-14 -28 -20 -31 0
-15 -29 -20 -31 0
-11 -25 -20 -32 0
-12 -26 -20 -32 0
-13 -27 -20 -32 0
-14 -28 -20 -32 0
-15 -29 -20 -32 0
-11 -25 -20 -33 0
-12 -26 -20 -33 0
-13 -27 -20 -33 0
-14 -28 -20 -33 0
-15 -29 -20 -33 0
-11 -25 -20 -34 0
-12 -26 -20 -34 0
-13 -27 -20 -34 0
-14 -28 -20 -34 0
-15 -29 -20 -34 0
-11 -25 -20 -35 0
-12 -26 -20 -35 0
-13 -27 -20 -35 0
-14 -28 -20 -35 0
-15 -29 -20 -35 0
-11 -25 -20 -36 0
-12 -26 -20 -36 0
-13 -27 -20 -36 0
-14 -28 -20 -36 0
-15 -29 -20 -36 0
-11 -25 -20 -37 0
-12 -26 -20 -37 0
-13 -27 -20 -37 0
-14 -28 -20 -37 0
-15 -29 -20 -37 0
-11 -25 -20 -38 0
-12 -26 -20 -38 0
-13 -27 -20 -38 0
-14 -28 -20 -38 0
-15 -29 -20 -38 0
-11 -25 -21 -30 0
-12 -26 -21 -30 0
-13 -27 -21 -30 0
-14 -28 -21 -30 0
-15 -29 -21 -30 0
-11 -25 -21 -31 0
-12 -26 -21 -31 0
-13 -27 -21 -31 0
-14 -28 -21 -31 0
-15 -29 -21 -31 0
-11 -25 -21 -32 0
-12 -26 -21 -32 0
-13 -27 -21 -32 0
-14 -28 -21 -32 0
-15 -29 -21 -32 0
-11 -25 -21 -33 0
-12 -26 -21 -33 0
-13 -27 -21 -33 0
-14 -28 -21 -33 0
-15 -29 -21 -33 0
-11 -25 -21 -34 0
-12 -26 -21 -34 0
-13 -27 -21 -34 0
-14 -28 -21 -34 0
-15 -29 -21 -34 0
-11 -25 -21 -35 0
-12 -26 -21 -35 0
-13 -27 -21 -35 0
-14 -28 -21 -35 0
-15 -29 -21 -35 0
-11 -25 -21 -36 0
-12 -26 -21 -36 0
-13 -27 -21 -36 0
-14 -28 -21 -36 0
-15 -29 -21 -36 0
-11 -25 -21 -37 0
-12 -26 -21 -37 0
-13 -27 -21 -37 0
-14 -28 -21 -37 0
-15 -29 -21 -37 0
-11 -25 -21 -38 0
-12 -26 -21 -38 0
-13 -27 -21 -38 0
-14 -28 -21 -38 0
-15 -29 -21 -38 0
-11 -25 -21 -39 0
-12 -26 -21 -39 0
-13 -27 -21 -39 0
-14 -28 -21 -39 0
-15 -29 -21 -39 0
-11 -25 -22 -30 0
-12 -26 -22 -30 0
-13 -27 -22 -30 0
-14 -28 -22 -30 0
-15 -29 -22 -30 0
-11 -25 -22 -31 0
-12 -26 -22 -31 0
-13 -27 -22 -31 0
-14 -28 -22 -31 0
-15 -29 -22 -31 0
-11 -25 -22 -32 0
-12 -26 -22 -32 0
-13 -27 -22 -32 0
-14 -28 -22 -32 0
-15 -29 -22 -32 0
-11 -25 -22 -33 0
-12 -26 -22 -33 0
-13 -27 -22 -33 0
-14 -28 -22 -33 0
-15 -29 -22 -33 0
-11 -25 -22 -34 0
-12 -26 -22 -34 0
-13 -27 -22 -34 0
-14 -28 -22 -34 0
-15 -29 -22 -34 0
-11 -25 -22 -35 0
-12 -26 -22 -35 0
-13 -27 -22 -35 0
-14 -28 -22 -35 0
-15 -29 -22 -35 0
-11 -25 -22 -36 0
-12 -26 -22 -36 0
-13 -27 -22 -36 0
-14 -28 -22 -36 0
-15 -29 -22 -36 0
-11 -25 -22 -37 0
-12 -26 -22 -37 0
-13 -27 -22 -37 0
-14 -28 -22 -37 0
-15 -29 -22 -37 0
-11 -25 -22 -38 0
-12 -26 -22 -38 0
-13 -27 -22 -38 0
-14 -28 -22 -38 0
-15 -29 -22 -38 0
-11 -25 -22 -39 0
-12 -26 -22 -39 0
-13 -27 -22 -39 0
-14 -28 -22 -39 0
-15 -29 -22 -39 0
-11 -25 -22 -40 0
-12 -26 -22 -40 0
-13 -27 -22 -40 0
-14 -28 -22 -40 0
-15 -29 -22 -40 0
-11 -25 -23 -30 0
-12 -26 -23 -30 0
-13 -27 -23 -30 0
-14 -28 -23 -30 0
-15 -29 -23 -30 0
-11 -25 -23 -31 0
-12 -26 -23 -31 0
-13 -27 -23 -31 0
-14 -28 -23 -31 0
-15 -29 -23 -31 0
-11 -25 -23 -32 0
-12 -26 -23 -32 0
-13 -27 -23 -32 0
-14 -28 -23 -32 0
-15 -29 -23 -32 0
-11 -25 -23 -33 0
-12 -26 -23 -33 0
-13 -27 -23 -33 0
-14 -28 -23 -33 0
-15 -29 -23 -33 0
-11 -25 -23 -34 0
-12 -26 -23 -34 0
-13 -27 -23 -34 0
-14 -28 -23 -34 0
-15 -29 -23 -34 0
-11 -25 -23 -35 0
-12 -26 -23 -35 0
-13 -27 -23 -35 0
-14 -28 -23 -35 0
-15 -29 -23 -35 0
-11 -25 -23 -36 0
-12 -26 -23 -36 0
-13 -27 -23 -36 0
-14 -28 -23 -36 0
-15 -29 -23 -36 0
-11 -25 -23 -37 0
-12 -26 -23 -37 0
-13 -27 -23 -37 0
-14 -28 -23 -37 0
-15 -29 -23 -37 0
-11 -25 -23 -38 0
-12 -26 -23 -38 0
-13 -27 -23 -38 0
-14 -28 -23 -38 0
-15 -29 -23 -38 0
-11 -25 -23 -39 0
-12 -26 -23 -39 0
-13 -27 -23 -39 0
-14 -28 -23 -39 0
-15 -29 -23 -39 0
-11 -25 -23 -40 0
-12 -26 -23 -40 0
-13 -27 -23 -40 0
-14 -28 -23 -40 0
-15 -29 -23 -40 0
-11 -25 -24 -30 0
-12 -26 -24 -30 0
-13 -27 -24 -30 0
-14 -28 -24 -30 0
-15 -29 -24 -30 0
-11 -25 -24 -31 0
-12 -26 -24 -31 0
-13 -27 -24 -31 0
-14 -28 -24 -31 0
-15 -29 -24 -31 0
-11 -25 -24 -32 0
-12 -26 -24 -32 0
-13 -27 -24 -32 0
-14 -28 -24 -32 0
-15 -29 -24 -32 0
-11 -25 -24 -33 0
-12 -26 -24 -33 0
-13 -27 -24 -33 0
-14 -28 -24 -33 0
-15 -29 -24 -33 0
-11 -25 -24 -34 0
-12 -26 -24 -34 0
-13 -27 -24 -34 0
-14 -28 -24 -34 0
-15 -29 -24 -34 0
-11 -25 -24 -35 0
-12 -26 -24 -35 0
-13 -27 -24 -35 0
-14 -28 -24 -35 0
-15 -29 -24 -35 0
-11 -25 -24 -36 0
-12 -26 -24 -36 0
-13 -27 -24 -36 0
-14 -28 -24 -36 0
-15 -29 -24 -36 0
-11 -25 -24 -37 0
-12 -26 -24 -37 0
-13 -27 -24 -37 0
-14 -28 -24 -37 0
-15 -29 -24 -37 0
-11 -25 -24 -38 0
-12 -26 -24 -38 0
-13 -27 -24 -38 0
-14 -28 -24 -38 0
-15 -29 -24 -38 0
-11 -25 -24 -39 0
-12 -26 -24 -39 0
-13 -27 -24 -39 0
-14 -28 -24 -39 0
-15 -29 -24 -39 0
-11 -25 -24 -40 0
-12 -26 -24 -40 0
-13 -27 -24 -40 0
-14 -28 -24 -40 0
-15 -29 -24 -40 0
