p cnf 52 263
1 2 0
-1 -2 0
10 11 0
-10 -11 0
20 21 0
-20 -21 0
30 31 0
-30 -31 0
38 39 0
-38 -39 0
42 43 0
-42 -43 0
48 49 0
-48 -49 0
3 4 5 6 7 8 9 0
-3 -4 0
-3 -5 0
-3 -6 0
-3 -7 0
-3 -8 0
-3 -9 0
-4 -5 0
-4 -6 0
-4 -7 0
-4 -8 0
-4 -9 0
-5 -6 0
-5 -7 0
-5 -8 0
-5 -9 0
-6 -7 0
-6 -8 0
-6 -9 0
-7 -8 0
-7 -9 0
-8 -9 0
12 13 14 15 16 17 18 19 0
-12 -13 0
-12 -14 0
-12 -15 0
-12 -16 0
-12 -17 0
-12 -18 0
-12 -19 0
-13 -14 0
-13 -15 0
-13 -16 0
-13 -17 0
-13 -18 0
-13 -19 0
-14 -15 0
-14 -16 0
-14 -17 0
-14 -18 0
-14 -19 0
-15 -16 0
-15 -17 0
-15 -18 0
-15 -19 0
-16 -17 0
-16 -18 0
-16 -19 0
-17 -18 0
-17 -19 0
-18 -19 0
22 23 24 25 26 27 28 29 0
-22 -23 0
-22 -24 0
-22 -25 0
-22 -26 0
-22 -27 0
-22 -28 0
-22 -29 0
-23 -24 0
-23 -25 0
-23 -26 0
-23 -27 0
-23 -28 0
-23 -29 0
-24 -25 0
-24 -26 0
-24 -27 0
-24 -28 0
-24 -29 0
-25 -26 0
-25 -27 0
-25 -28 0
-25 -29 0
-26 -27 0
-26 -28 0
-26 -29 0
-27 -28 0
-27 -29 0
-28 -29 0
32 33 34 35 36 37 0
-32 -33 0
-32 -34 0
-32 -35 0
-32 -36 0
-32 -37 0
-33 -34 0
-33 -35 0
-33 -36 0
-33 -37 0
-34 -35 0
-34 -36 0
-34 -37 0
-35 -36 0
-35 -37 0
-36 -37 0
40 41 0
-40 -41 0
44 45 46 47 0
-44 -45 0
-44 -46 0
-44 -47 0
-45 -46 0
-45 -47 0
-46 -47 0
50 51 52 0
-50 -51 0
-50 -52 0
-51 -52 0
-1 -20 -4 -22 0
-2 -21 -4 -22 0
-1 -20 -5 -22 0
-2 -21 -5 -22 0
-1 -20 -5 -23 0
-2 -21 -5 -23 0
-1 -20 -6 -22 0
-2 -21 -6 -22 0
-1 -20 -6 -23 0
-2 -21 -6 -23 0
-1 -20 -6 -24 0
-2 -21 -6 -24 0
-1 -20 -7 -22 0
-2 -21 -7 -22 0
-1 -20 -7 -23 0
-2 -21 -7 -23 0
-1 -20 -7 -24 0
-2 -21 -7 -24 0
-1 -20 -7 -25 0
-2 -21 -7 -25 0
-1 -20 -8 -23 0
-2 -21 -8 -23 0
-1 -20 -8 -24 0
-2 -21 -8 -24 0
-1 -20 -8 -25 0
-2 -21 -8 -25 0
-1 -20 -8 -26 0
-2 -21 -8 -26 0
-1 -20 -9 -24 0
-2 -21 -9 -24 0
-1 -20 -9 -25 0
-2 -21 -9 -25 0
-1 -20 -9 -26 0
-2 -21 -9 -26 0
-1 -20 -9 -27 0
-2 -21 -9 -27 0
-1 -30 -3 -32 0
-2 -31 -3 -32 0
-1 -30 -3 -33 0
-2 -31 -3 -33 0
-1 -30 -3 -34 0
-2 -31 -3 -34 0
-1 -30 -3 -35 0
-2 -31 -3 -35 0
-1 -30 -3 -36 0
-2 -31 -3 -36 0
-1 -30 -3 -37 0
-2 -31 -3 -37 0
-1 -30 -4 -33 0
-2 -31 -4 -33 0
-1 -30 -4 -34 0
-2 -31 -4 -34 0
-1 -30 -4 -35 0
-2 -31 -4 -35 0
-1 -30 -4 -36 0
-2 -31 -4 -36 0
-1 -30 -4 -37 0
-2 -31 -4 -37 0
-1 -30 -5 -34 0
-2 -31 -5 -34 0
-1 -30 -5 -35 0
-2 -31 -5 -35 0
-1 -30 -5 -36 0
-2 -31 -5 -36 0
-1 -30 -5 -37 0
-2 -31 -5 -37 0
-1 -30 -6 -35 0
-2 -31 -6 -35 0
-1 -30 -6 -36 0
-2 -31 -6 -36 0
-1 -30 -6 -37 0
-2 -31 -6 -37 0
-1 -30 -7 -36 0
-2 -31 -7 -36 0
-1 -30 -7 -37 0
-2 -31 -7 -37 0
-1 -30 -8 -37 0
-2 -31 -8 -37 0
-1 -38 -6 -40 0
-2 -39 -6 -40 0
-1 -38 -7 -40 0
-2 -39 -7 -40 0
-1 -38 -7 -41 0
-2 -39 -7 -41 0
-1 -38 -8 -40 0
-2 -39 -8 -40 0
-1 -38 -8 -41 0
-2 -39 -8 -41 0
-1 -38 -9 -40 0
-2 -39 -9 -40 0
-1 -38 -9 -41 0
-2 -39 -9 -41 0
-1 -42 -9 -44 0
-2 -43 -9 -44 0
-10 -42 -12 -47 0
-11 -43 -12 -47 0
-10 -48 -12 -50 0
-11 -49 -12 -50 0
-10 -48 -12 -51 0
-11 -49 -12 -51 0
-10 -48 -12 -52 0
-11 -49 -12 -52 0
-10 -48 -13 -51 0
-11 -49 -13 -51 0
-10 -48 -13 -52 0
-11 -49 -13 -52 0
-10 -48 -14 -52 0
-11 -49 -14 -52 0
-20 -30 -22 -36 0
-21 -31 -22 -36 0
-20 -30 -22 -37 0
-21 -31 -22 -37 0
-20 -30 -23 -37 0
-21 -31 -23 -37 0
-20 -38 -24 -40 0
-21 -39 -24 -40 0
-20 -38 -25 -40 0
-21 -39 -25 -40 0
-20 -38 -25 -41 0
-21 -39 -25 -41 0
-20 -38 -26 -40 0
-21 -39 -26 -40 0
-20 -38 -26 -41 0
-21 -39 -26 -41 0
-20 -38 -27 -41 0
-21 -39 -27 -41 0
-20 -42 -27 -44 0
-21 -43 -27 -44 0
-20 -42 -28 -44 0
-21 -43 -28 -44 0
-20 -42 -28 -45 0
-21 -43 -28 -45 0
-20 -42 -29 -45 0
-21 -43 -29 -45 0
-20 -42 -29 -46 0
-21 -43 -29 -46 0
-38 -42 -41 -44 0
-39 -43 -41 -44 0
-42 -48 -47 -50 0
-43 -49 -47 -50 0
